(declare-fun e () String)
(declare-fun c () String)
(declare-fun g () String)
(declare-fun b () String)
(declare-fun d () String)
(declare-fun f () String)
(declare-fun a () String)
(declare-fun h () String)
(assert (= "cc" (str.++ f "be")))
(assert (= (str.++ f b "d" b "b") (str.++ c "c" d c h)))
(assert (= (str.++ d "hb" e "h" g) (str.++ "ga" g a)))

(check-sat)
